152 127034
1 35 36 34 46 52 53 72 71 70 69 54 45 80 89 88 82 105 106 107 86 83 63 64 59 58 42 43 57 65 66 67 100 113 114 90 99 98 97 124 125 126 152 150 151 127 128 123 130 129 122 93 94 95 116 115 96 91 79 78 92 77 75 48 50 76 49 74 73 51 47 38 28 27 4 13 5 25 26 24 12 6 39 87 104 111 118 137 138 143 142 141 139 140 117 110 109 108 85 84 62 61 60 41 23 22 11 7 21 20 19 10 8 9 17 18 40 112 149 148 147 131 132 121 120 133 134 146 145 144 135 136 119 103 102 101 81 68 56 55 44 30 31 29 14 3 15 32 33 37 2 16 
